c This is a CNF SAT formula in the DIMACS CNF format,
c produced with the bc2cnf translator by Tommi Junttila;
c see http://users.ics.aalto.fi/tjunttil/circuits/index.html
c phi_Gamma <-> 1
c phi_T_transitions <-> 1
c phi_T_transitions_consistency <-> 1
c phi_T <-> 1
c phi_sim_leaves <-> 1
c phi_sim_transition <-> 1
c phi_sim <-> 1
c FORMULA <-> 1
c pi_0_13 <-> 2
c pi_0_18 <-> 2
c pi_0_17 <-> 13
c pi_0_16 <-> 26
c pi_0_1 <-> 29
c pi_0_15 <-> 29
c pi_0_11 <-> 33
c pi_0_14 <-> 33
c pi_0_12 <-> 41
c pi_0_10 <-> 43
c pi_0_9 <-> 44
c pi_0_8 <-> 48
c pi_0_0 <-> 55
c pi_0_7 <-> 55
c pi_0_6 <-> 59
c pi_0_5 <-> 63
c pi_0_4 <-> 65
c pi_0_3 <-> 66
c pi_0_2 <-> 70
c alp_approved_1_0 <-> 72
c alp_approved_1_1 <-> 72
c alp_approved_1_2 <-> 72
c alp_approved_1_3 <-> 72
c alp_approved_1_4 <-> 72
c alp_approved_0_5 <-> 72
c alp_approved_1_6 <-> 72
c alp_approved_1_7 <-> 72
c alp_approved_0_8 <-> 72
c alp_approved_1_9 <-> 72
c alp_approved_1_10 <-> 72
c alp_approved_0_11 <-> 72
c alp_approved_1_12 <-> 72
c alp_approved_0_13 <-> 72
c alp_approved_0_14 <-> 72
c alp_approved_1_15 <-> 72
c alp_approved_1_16 <-> 72
c alp_approved_1_17 <-> 72
c alp_approved_0_18 <-> 72
c alp_approved_1_5 <-> 73
c alp_approved_1_8 <-> 73
c alp_approved_1_11 <-> 73
c alp_approved_1_13 <-> 73
c alp_approved_1_14 <-> 73
c alp_approved_1_18 <-> 73
c approved_P100 <-> 73
c alp_approved_0_0 <-> 74
c alp_approved_0_1 <-> 74
c alp_approved_0_2 <-> 74
c alp_approved_0_3 <-> 74
c alp_approved_0_4 <-> 74
c alp_approved_0_6 <-> 74
c alp_approved_0_7 <-> 74
c alp_approved_0_9 <-> 74
c alp_approved_0_10 <-> 74
c alp_approved_0_12 <-> 74
c alp_approved_0_15 <-> 74
c alp_approved_0_16 <-> 74
c alp_approved_0_17 <-> 74
c approved_P0 <-> 74
c tau_0_3_approved_1 <-> 101
c tau_0_3_approved_0 <-> 102
c tau_0_2_approved_1 <-> 103
c tau_0_2_approved_0 <-> 104
c tau_0_1_approved_1 <-> 105
c tau_0_1_approved_0 <-> 106
c tau_0_0_approved_1 <-> 107
c tau_0_0_approved_0 <-> 108
c phi_T_feature_det <-> 109
c lam_0_credit_score <-> 122
c lam_0_dependents <-> 124
c lam_0_monthly_income <-> 126
c lam_0_age <-> 127
p wcnf 127 377 20  
20 1 0
20 2 -3 0
20 2 -4 0
20 -2 4 3 0
1 2 0
20 -3 11 0
20 -3 122 0
20 3 -122 -11 0
20 4 -5 0
20 4 -6 0
20 -4 6 5 0
20 -5 8 0
20 -5 124 0
20 5 -124 -8 0
20 6 -7 0
20 6 -10 0
20 -6 10 7 0
20 -7 8 0
20 -7 126 0
20 7 -126 -8 0
20 -8 9 0
20 -8 -106 0
20 8 106 -9 0
20 9 105 0
20 9 -73 0
20 -9 73 -105 0
20 -10 11 0
20 -10 127 0
20 10 -127 -11 0
20 -11 12 0
20 -11 -104 0
20 11 104 -12 0
20 12 103 0
20 12 -73 0
20 -12 73 -103 0
20 13 -14 0
20 13 -15 0
20 -13 15 14 0
1 13 0
20 -14 17 0
20 -14 122 0
20 14 -122 -17 0
20 15 -16 0
20 15 -19 0
20 -15 19 16 0
20 -16 17 0
20 -16 124 0
20 16 -124 -17 0
20 -17 -105 0
20 -17 18 0
20 17 -18 105 0
20 18 106 0
20 18 -74 0
20 -18 74 -106 0
20 19 -20 0
20 19 -23 0
20 -19 23 20 0
20 -20 21 0
20 -20 126 0
20 20 -126 -21 0
20 -21 -107 0
20 -21 22 0
20 21 -22 107 0
20 22 108 0
20 22 -74 0
20 -22 74 -108 0
20 -23 24 0
20 -23 127 0
20 23 -127 -24 0
20 -24 -101 0
20 -24 25 0
20 24 -25 101 0
20 25 102 0
20 25 -74 0
20 -25 74 -102 0
20 26 -14 0
20 26 -27 0
20 -26 27 14 0
1 26 0
20 27 -19 0
20 27 -28 0
20 -27 28 19 0
20 -28 21 0
20 -28 124 0
20 28 -124 -21 0
20 29 -27 0
20 29 -30 0
20 -29 30 27 0
1 29 0
20 -30 31 0
20 -30 122 0
20 30 -122 -31 0
20 -31 -103 0
20 -31 32 0
20 31 -32 103 0
20 32 104 0
20 32 -74 0
20 -32 74 -104 0
20 33 -34 0
20 33 -35 0
20 -33 35 34 0
1 33 0
20 -34 8 0
20 -34 122 0
20 34 -122 -8 0
20 35 -36 0
20 35 -39 0
20 -35 39 36 0
20 -36 37 0
20 -36 124 0
20 36 -124 -37 0
20 -37 -108 0
20 -37 38 0
20 37 -38 108 0
20 38 107 0
20 38 -73 0
20 -38 73 -107 0
20 39 -7 0
20 39 -40 0
20 -39 40 7 0
20 -40 8 0
20 -40 127 0
20 40 -127 -8 0
20 41 -15 0
20 41 -42 0
20 -41 42 15 0
1 41 0
20 -42 21 0
20 -42 122 0
20 42 -122 -21 0
20 43 -15 0
20 43 -30 0
20 -43 30 15 0
1 43 0
20 44 -30 0
20 44 -45 0
20 -44 45 30 0
1 44 0
20 45 -16 0
20 45 -46 0
20 -45 46 16 0
20 46 -20 0
20 46 -47 0
20 -46 47 20 0
20 -47 21 0
20 -47 127 0
20 47 -127 -21 0
20 48 -49 0
20 48 -50 0
20 -48 50 49 0
1 48 0
20 -49 37 0
20 -49 122 0
20 49 -122 -37 0
20 50 -5 0
20 50 -51 0
20 -50 51 5 0
20 51 -7 0
20 51 -52 0
20 -51 52 7 0
20 -52 53 0
20 -52 127 0
20 52 -127 -53 0
20 -53 -102 0
20 -53 54 0
20 53 -54 102 0
20 54 101 0
20 54 -73 0
20 -54 73 -101 0
20 55 -42 0
20 55 -56 0
20 -55 56 42 0
1 55 0
20 56 -16 0
20 56 -57 0
20 -56 57 16 0
20 57 -20 0
20 57 -58 0
20 -57 58 20 0
20 -58 31 0
20 -58 127 0
20 58 -127 -31 0
20 59 -42 0
20 59 -60 0
20 -59 60 42 0
1 59 0
20 60 -16 0
20 60 -61 0
20 -60 61 16 0
20 61 -47 0
20 61 -62 0
20 -61 62 47 0
20 -62 17 0
20 -62 126 0
20 62 -126 -17 0
20 63 -34 0
20 63 -64 0
20 -63 64 34 0
1 63 0
20 64 -36 0
20 64 -51 0
20 -64 51 36 0
20 65 -14 0
20 65 -45 0
20 -65 45 14 0
1 65 0
20 66 -14 0
20 66 -67 0
20 -66 67 14 0
1 66 0
20 67 -28 0
20 67 -68 0
20 -67 68 28 0
20 68 -20 0
20 68 -69 0
20 -68 69 20 0
20 -69 17 0
20 -69 127 0
20 69 -127 -17 0
20 70 -30 0
20 70 -71 0
20 -70 71 30 0
1 70 0
20 71 -16 0
20 71 -68 0
20 -71 68 16 0
20 -72 0
20 75 122 0
20 75 -76 0
20 -75 76 -122 0
20 75 0
20 -76 -101 0
20 -76 -102 0
20 76 102 101 0
20 77 124 0
20 77 -78 0
20 -77 78 -124 0
20 77 0
20 -78 -101 0
20 -78 79 0
20 78 -79 101 0
20 -79 -102 0
20 -79 80 0
20 79 -80 102 0
20 -80 -103 0
20 -80 -104 0
20 80 104 103 0
20 81 -78 0
20 81 126 0
20 -81 -126 78 0
20 81 0
20 82 122 0
20 82 -83 0
20 -82 83 -122 0
20 82 0
20 -83 84 0
20 -83 87 0
20 83 -87 -84 0
20 84 -85 0
20 84 -86 0
20 -84 86 85 0
20 -85 -104 0
20 -85 103 0
20 85 -103 104 0
20 -86 -103 0
20 -86 104 0
20 86 -104 103 0
20 -87 88 0
20 -87 91 0
20 87 -91 -88 0
20 88 -89 0
20 88 -90 0
20 -88 90 89 0
20 -89 -106 0
20 -89 105 0
20 89 -105 106 0
20 -90 -105 0
20 -90 106 0
20 90 -106 105 0
20 91 -92 0
20 91 -93 0
20 -91 93 92 0
20 -92 -108 0
20 -92 107 0
20 92 -107 108 0
20 -93 -107 0
20 -93 108 0
20 93 -108 107 0
20 94 124 0
20 94 -87 0
20 -94 87 -124 0
20 94 0
20 95 126 0
20 95 -87 0
20 -95 87 -126 0
20 95 0
20 96 127 0
20 96 -97 0
20 -96 97 -127 0
20 96 0
20 -97 83 0
20 -97 98 0
20 97 -98 -83 0
20 98 -99 0
20 98 -100 0
20 -98 100 99 0
20 -99 -102 0
20 -99 101 0
20 99 -101 102 0
20 -100 -101 0
20 -100 102 0
20 100 -102 101 0
20 109 -110 0
20 109 -113 0
20 -109 113 110 0
20 109 0
20 -110 -124 0
20 -110 111 0
20 110 -111 124 0
20 -111 -126 0
20 -111 112 0
20 111 -112 126 0
20 -112 -127 0
20 -112 122 0
20 112 -122 127 0
20 113 -114 0
20 113 -117 0
20 -113 117 114 0
20 -114 -122 0
20 -114 115 0
20 114 -115 122 0
20 -115 -126 0
20 -115 116 0
20 115 -116 126 0
20 -116 -127 0
20 -116 124 0
20 116 -124 127 0
20 117 -118 0
20 117 -121 0
20 -117 121 118 0
20 -118 -122 0
20 -118 119 0
20 118 -119 122 0
20 -119 -124 0
20 -119 120 0
20 119 -120 124 0
20 -120 -127 0
20 -120 126 0
20 120 -126 127 0
20 -121 -122 0
20 -121 123 0
20 121 -123 122 0
20 -123 -124 0
20 -123 125 0
20 123 -125 124 0
20 -125 -126 0
20 -125 127 0
20 125 -127 126 0
